\Generated using SimplexCpp @ 28-02-2020 18:43:05
\Wrong orientation inequality problem, still manages
\x1=9/5, x2=4, x3=0.2, x4=x5=0

Minimize
 obj: -5 x1 -8 x2 
Subject To
 c1: +1 x1 +1 x2 +1 x3 <= 6
 c2: +5 x1 +9 x2 +1 x4 <= 45
 c3: +1 x2 -1 x5 <= 4
Bounds
 x1 >= 0 x2 >= 0 x3 >= 0 x4 >= 0 x5 >= 0

End